Nx := 512
Ny := 512
Nz := 1
CellX := 1.9453125e-09
CellY := 1.9453125e-09
CellZ := 4.96E-9
SetCellsize(CellX, CellY, CellZ)
SetGridsize(Nx, Ny, Nz)
setgeom(imageShape("geom_512.png"))
defregion(1, rect(50e-9, 50e-9))
setPBC(3, 3, 0)
edgesmooth = 8

Msat  = 5.89e5
Aex   = 12e-12
alpha = 0.02
m = uniform(0, 1, 0)
SOTxi := -2
alphaH := 0.07
Pol = alphaH
Lambda = 1
EpsilonPrime = alphaH / 2 * SOTxi
GammaLL = 29.53e9
fixedlayer = vector(-1, 0, 0)

//1st axis
K1 := 7e5
u1 := ConstVector(0,1,0)
prefactor1 := Const(2*K1/Msat.Average())
customAnisField1 := Mul(prefactor1,Mul(Dot(m,u1),u1))
AddFieldTerm(customAnisField1)
AddEdensTerm(Mul(Const(-K1),Mul(Dot(m,u1),Dot(m,u1))))

//2nd axis
K2 := 7e5
u2 := ConstVector(0,0,1)
prefactor2 := Const(2*K2/Msat.Average())
customAnisField2 := Mul(prefactor2,Mul(Dot(m,u2),u2))
AddFieldTerm(customAnisField2)
AddEdensTerm(Mul(Const(-K2),Mul(Dot(m,u2),Dot(m,u2))))




m = randomMag()
relax()         // high-energy states best minimized by relax()


Bmax  := 3.0
Bstep :=  5e-2
MinimizerStop = 1e-6
TableAdd(B_ext)

for B:=0.0; B<=Bmax; B+=Bstep{
    B_ext = vector(0, B, 0)
    minimize()   // small changes best minimized by minimize()
    tablesave()
}

for B:=Bmax; B>=-Bmax; B-=Bstep{
    B_ext = vector(0, B, 0)
    minimize()   // small changes best minimized by minimize()
    tablesave()
}

for B:=-Bmax; B<=Bmax; B+=Bstep{
    B_ext = vector(0, B, 0)
    minimize()   // small changes best minimized by minimize()
    tablesave()
}